#######################



#######################
Set parameter TimeLimit to value 500
Set parameter SoftMemLimit to value 125
Set parameter MIPFocus to value 3
Set parameter LogFile to value 1003-MIPFocus3-Presolve1-TimeLimit500-k16x240-5.log
Set parameter Presolve to value 1
Set parameter Seed to value 15
Using license file /opt/gurobi/gurobi.lic

Gurobi Optimizer version 10.0.3 build v10.0.3rc0 (linux64)
Copyright (c) 2023, Gurobi Optimization, LLC

Read MPS format model from file /miplib2010/k16x240.mps.bz2
Reading time = 0.01 seconds
k16x240: 256 rows, 480 columns, 960 nonzeros

CPU model: Intel(R) Xeon(R) E-2388G CPU @ 3.20GHz, instruction set [SSE2|AVX|AVX2|AVX512]
Thread count: 8 physical cores, 16 logical processors, using up to 16 threads

Optimize a model with 256 rows, 480 columns and 960 nonzeros
Model fingerprint: 0x4e80885f
Variable types: 240 continuous, 240 integer (240 binary)
Coefficient statistics:
  Matrix range     [1e+00, 1e+03]
  Objective range  [1e+00, 1e+03]
  Bounds range     [1e+00, 1e+03]
  RHS range        [4e+00, 4e+02]
Found heuristic solution: objective 16199.000000
Presolve time: 0.00s
Presolved: 256 rows, 480 columns, 960 nonzeros
Variable types: 240 continuous, 240 integer (240 binary)

Root relaxation: objective 2.769838e+03, 51 iterations, 0.00 seconds (0.00 work units)

    Nodes    |    Current Node    |     Objective Bounds      |     Work
 Expl Unexpl |  Obj  Depth IntInf | Incumbent    BestBd   Gap | It/Node Time

     0     0 2769.83800    0   14 16199.0000 2769.83800  82.9%     -    0s
H    0     0                    11359.000000 2769.83800  75.6%     -    0s
H    0     0                    11195.000000 2769.83800  75.3%     -    0s
H    0     0                    11074.000000 8116.87580  26.7%     -    0s
H    0     0                    10916.000000 8116.87580  25.6%     -    0s
     0     0 8116.87580    0   26 10916.0000 8116.87580  25.6%     -    0s
H    0     0                    10779.000000 8116.87580  24.7%     -    0s
H    0     0                    10750.000000 8116.87580  24.5%     -    0s
     0     0 8738.52425    0   24 10750.0000 8738.52425  18.7%     -    0s
     0     0 8985.30224    0   34 10750.0000 8985.30224  16.4%     -    0s
     0     0 8985.39649    0   32 10750.0000 8985.39649  16.4%     -    0s
     0     0 8985.39649    0   35 10750.0000 8985.39649  16.4%     -    0s
     0     0 9009.80632    0   40 10750.0000 9009.80632  16.2%     -    0s
     0     0 9009.80632    0   40 10750.0000 9009.80632  16.2%     -    0s
     0     0 9170.45322    0   27 10750.0000 9170.45322  14.7%     -    0s
     0     0 9174.72025    0   27 10750.0000 9174.72025  14.7%     -    0s
     0     0 9176.64978    0   31 10750.0000 9176.64978  14.6%     -    0s
     0     0 9196.80923    0   31 10750.0000 9196.80923  14.4%     -    0s
H    0     0                    10748.000000 9196.80923  14.4%     -    0s
H    0     0                    10681.000000 9196.80923  13.9%     -    0s
     0     2 9196.80923    0   31 10681.0000 9196.80923  13.9%     -    0s
H   32    40                    10678.000000 9340.48849  12.5%  80.7    0s
H  177   197                    10674.000000 9493.27196  11.1%  53.4    0s
  4750  3333 10283.3990   30   23 10674.0000 10279.8046  3.69%  76.8    5s
 23951  9374 10654.9741   36   22 10674.0000 10557.0867  1.10%  49.1   10s

Cutting planes:
  Gomory: 1
  Lift-and-project: 6
  Implied bound: 4
  MIR: 109
  Flow cover: 496
  Flow path: 40
  Zero half: 34
  Network: 27
  Relax-and-lift: 4

Explored 43597 nodes (1515397 simplex iterations) in 12.19 seconds (16.22 work units)
Thread count was 16 (of 16 available processors)

Solution count 10: 10674 10678 10681 ... 11359

Optimal solution found (tolerance 1.00e-04)
Best objective 1.067400000000e+04, best bound 1.067308657159e+04, gap 0.0086%
